<?xml version = "1.0" encoding="UTF-8" standalone="yes"?>
<CPLEXSolution version="1.2">
 <header
   problemName="TSP"
   solutionName="incumbent"
   solutionIndex="-1"
   objectiveValue="5726.2040294257295"
   solutionTypeValue="3"
   solutionTypeString="primal"
   solutionStatusValue="101"
   solutionStatusString="integer optimal solution"
   solutionMethodString="mip"
   primalFeasible="1"
   dualFeasible="1"
   MIPNodes="0"
   MIPIterations="45"
   writeLevel="1"/>
 <quality
   epInt="0"
   epRHS="1.0000000000000001e-09"
   maxIntInfeas="0"
   maxPrimalInfeas="0"
   maxX="15"
   maxSlack="0"/>
 <linearConstraints>
  <constraint name="c1" index="0" slack="0"/>
  <constraint name="c2" index="1" slack="0"/>
  <constraint name="c3" index="2" slack="0"/>
  <constraint name="c4" index="3" slack="0"/>
  <constraint name="c5" index="4" slack="0"/>
  <constraint name="c6" index="5" slack="0"/>
  <constraint name="c7" index="6" slack="0"/>
  <constraint name="c8" index="7" slack="0"/>
  <constraint name="c9" index="8" slack="0"/>
  <constraint name="c10" index="9" slack="0"/>
  <constraint name="c11" index="10" slack="0"/>
  <constraint name="c12" index="11" slack="0"/>
  <constraint name="c13" index="12" slack="0"/>
  <constraint name="c14" index="13" slack="0"/>
  <constraint name="c15" index="14" slack="0"/>
  <constraint name="c16" index="15" slack="0"/>
  <constraint name="c17" index="16" slack="0"/>
  <constraint name="c18" index="17" slack="0"/>
  <constraint name="c19" index="18" slack="0"/>
  <constraint name="c20" index="19" slack="0"/>
  <constraint name="c21" index="20" slack="0"/>
  <constraint name="c22" index="21" slack="0"/>
  <constraint name="c23" index="22" slack="0"/>
  <constraint name="c24" index="23" slack="0"/>
  <constraint name="c25" index="24" slack="0"/>
  <constraint name="c26" index="25" slack="0"/>
  <constraint name="c27" index="26" slack="0"/>
  <constraint name="c28" index="27" slack="0"/>
  <constraint name="c29" index="28" slack="0"/>
  <constraint name="c30" index="29" slack="0"/>
  <constraint name="c31" index="30" slack="0"/>
  <constraint name="c32" index="31" slack="0"/>
 </linearConstraints>
 <variables>
  <variable name="x1" index="0" value="0"/>
  <variable name="x2" index="1" value="-0"/>
  <variable name="x3" index="2" value="-0"/>
  <variable name="x4" index="3" value="-0"/>
  <variable name="x5" index="4" value="-0"/>
  <variable name="x6" index="5" value="-0"/>
  <variable name="x7" index="6" value="-0"/>
  <variable name="x8" index="7" value="0"/>
  <variable name="x9" index="8" value="-0"/>
  <variable name="x10" index="9" value="-0"/>
  <variable name="x11" index="10" value="0"/>
  <variable name="x12" index="11" value="-0"/>
  <variable name="x13" index="12" value="-0"/>
  <variable name="x14" index="13" value="-0"/>
  <variable name="x15" index="14" value="1"/>
  <variable name="x16" index="15" value="-0"/>
  <variable name="x17" index="16" value="-0"/>
  <variable name="x18" index="17" value="0"/>
  <variable name="x19" index="18" value="-0"/>
  <variable name="x20" index="19" value="-0"/>
  <variable name="x21" index="20" value="-0"/>
  <variable name="x22" index="21" value="-0"/>
  <variable name="x23" index="22" value="-0"/>
  <variable name="x24" index="23" value="-0"/>
  <variable name="x25" index="24" value="-0"/>
  <variable name="x26" index="25" value="-0"/>
  <variable name="x27" index="26" value="-0"/>
  <variable name="x28" index="27" value="-0"/>
  <variable name="x29" index="28" value="-0"/>
  <variable name="x30" index="29" value="-0"/>
  <variable name="x31" index="30" value="0"/>
  <variable name="x32" index="31" value="1"/>
  <variable name="x33" index="32" value="-0"/>
  <variable name="x34" index="33" value="-0"/>
  <variable name="x35" index="34" value="0"/>
  <variable name="x36" index="35" value="0"/>
  <variable name="x37" index="36" value="-0"/>
  <variable name="x38" index="37" value="-0"/>
  <variable name="x39" index="38" value="-0"/>
  <variable name="x40" index="39" value="-0"/>
  <variable name="x41" index="40" value="-0"/>
  <variable name="x42" index="41" value="-0"/>
  <variable name="x43" index="42" value="-0"/>
  <variable name="x44" index="43" value="-0"/>
  <variable name="x45" index="44" value="0"/>
  <variable name="x46" index="45" value="1"/>
  <variable name="x47" index="46" value="-0"/>
  <variable name="x48" index="47" value="-0"/>
  <variable name="x49" index="48" value="-0"/>
  <variable name="x50" index="49" value="-0"/>
  <variable name="x51" index="50" value="1"/>
  <variable name="x52" index="51" value="0"/>
  <variable name="x53" index="52" value="-0"/>
  <variable name="x54" index="53" value="0"/>
  <variable name="x55" index="54" value="-0"/>
  <variable name="x56" index="55" value="-0"/>
  <variable name="x57" index="56" value="-0"/>
  <variable name="x58" index="57" value="-0"/>
  <variable name="x59" index="58" value="-0"/>
  <variable name="x60" index="59" value="-0"/>
  <variable name="x61" index="60" value="-0"/>
  <variable name="x62" index="61" value="-0"/>
  <variable name="x63" index="62" value="-0"/>
  <variable name="x64" index="63" value="-0"/>
  <variable name="x65" index="64" value="-0"/>
  <variable name="x66" index="65" value="-0"/>
  <variable name="x67" index="66" value="-0"/>
  <variable name="x68" index="67" value="1"/>
  <variable name="x69" index="68" value="0"/>
  <variable name="x70" index="69" value="0"/>
  <variable name="x71" index="70" value="-0"/>
  <variable name="x72" index="71" value="-0"/>
  <variable name="x73" index="72" value="-0"/>
  <variable name="x74" index="73" value="-0"/>
  <variable name="x75" index="74" value="-0"/>
  <variable name="x76" index="75" value="-0"/>
  <variable name="x77" index="76" value="-0"/>
  <variable name="x78" index="77" value="-0"/>
  <variable name="x79" index="78" value="-0"/>
  <variable name="x80" index="79" value="-0"/>
  <variable name="x81" index="80" value="-0"/>
  <variable name="x82" index="81" value="-0"/>
  <variable name="x83" index="82" value="-0"/>
  <variable name="x84" index="83" value="0"/>
  <variable name="x85" index="84" value="1"/>
  <variable name="x86" index="85" value="0"/>
  <variable name="x87" index="86" value="-0"/>
  <variable name="x88" index="87" value="-0"/>
  <variable name="x89" index="88" value="0"/>
  <variable name="x90" index="89" value="-0"/>
  <variable name="x91" index="90" value="-0"/>
  <variable name="x92" index="91" value="-0"/>
  <variable name="x93" index="92" value="-0"/>
  <variable name="x94" index="93" value="-0"/>
  <variable name="x95" index="94" value="-0"/>
  <variable name="x96" index="95" value="-0"/>
  <variable name="x97" index="96" value="-0"/>
  <variable name="x98" index="97" value="-0"/>
  <variable name="x99" index="98" value="-0"/>
  <variable name="x100" index="99" value="-0"/>
  <variable name="x101" index="100" value="-0"/>
  <variable name="x102" index="101" value="0"/>
  <variable name="x103" index="102" value="0"/>
  <variable name="x104" index="103" value="-0"/>
  <variable name="x105" index="104" value="1"/>
  <variable name="x106" index="105" value="-0"/>
  <variable name="x107" index="106" value="-0"/>
  <variable name="x108" index="107" value="-0"/>
  <variable name="x109" index="108" value="-0"/>
  <variable name="x110" index="109" value="-0"/>
  <variable name="x111" index="110" value="-0"/>
  <variable name="x112" index="111" value="0"/>
  <variable name="x113" index="112" value="1"/>
  <variable name="x114" index="113" value="-0"/>
  <variable name="x115" index="114" value="-0"/>
  <variable name="x116" index="115" value="-0"/>
  <variable name="x117" index="116" value="-0"/>
  <variable name="x118" index="117" value="-0"/>
  <variable name="x119" index="118" value="-0"/>
  <variable name="x120" index="119" value="0"/>
  <variable name="x121" index="120" value="-0"/>
  <variable name="x122" index="121" value="-0"/>
  <variable name="x123" index="122" value="0"/>
  <variable name="x124" index="123" value="-0"/>
  <variable name="x125" index="124" value="-0"/>
  <variable name="x126" index="125" value="-0"/>
  <variable name="x127" index="126" value="-0"/>
  <variable name="x128" index="127" value="-0"/>
  <variable name="x129" index="128" value="-0"/>
  <variable name="x130" index="129" value="-0"/>
  <variable name="x131" index="130" value="-0"/>
  <variable name="x132" index="131" value="-0"/>
  <variable name="x133" index="132" value="-0"/>
  <variable name="x134" index="133" value="1"/>
  <variable name="x135" index="134" value="0"/>
  <variable name="x136" index="135" value="-0"/>
  <variable name="x137" index="136" value="0"/>
  <variable name="x138" index="137" value="-0"/>
  <variable name="x139" index="138" value="-0"/>
  <variable name="x140" index="139" value="-0"/>
  <variable name="x141" index="140" value="-0"/>
  <variable name="x142" index="141" value="-0"/>
  <variable name="x143" index="142" value="-0"/>
  <variable name="x144" index="143" value="-0"/>
  <variable name="x145" index="144" value="-0"/>
  <variable name="x146" index="145" value="-0"/>
  <variable name="x147" index="146" value="-0"/>
  <variable name="x148" index="147" value="-0"/>
  <variable name="x149" index="148" value="-0"/>
  <variable name="x150" index="149" value="-0"/>
  <variable name="x151" index="150" value="-0"/>
  <variable name="x152" index="151" value="-0"/>
  <variable name="x153" index="152" value="-0"/>
  <variable name="x154" index="153" value="0"/>
  <variable name="x155" index="154" value="-0"/>
  <variable name="x156" index="155" value="-0"/>
  <variable name="x157" index="156" value="1"/>
  <variable name="x158" index="157" value="0"/>
  <variable name="x159" index="158" value="-0"/>
  <variable name="x160" index="159" value="-0"/>
  <variable name="x161" index="160" value="-0"/>
  <variable name="x162" index="161" value="-0"/>
  <variable name="x163" index="162" value="-0"/>
  <variable name="x164" index="163" value="-0"/>
  <variable name="x165" index="164" value="-0"/>
  <variable name="x166" index="165" value="-0"/>
  <variable name="x167" index="166" value="-0"/>
  <variable name="x168" index="167" value="1"/>
  <variable name="x169" index="168" value="-0"/>
  <variable name="x170" index="169" value="-0"/>
  <variable name="x171" index="170" value="0"/>
  <variable name="x172" index="171" value="0"/>
  <variable name="x173" index="172" value="-0"/>
  <variable name="x174" index="173" value="-0"/>
  <variable name="x175" index="174" value="-0"/>
  <variable name="x176" index="175" value="-0"/>
  <variable name="x177" index="176" value="-0"/>
  <variable name="x178" index="177" value="-0"/>
  <variable name="x179" index="178" value="-0"/>
  <variable name="x180" index="179" value="-0"/>
  <variable name="x181" index="180" value="-0"/>
  <variable name="x182" index="181" value="-0"/>
  <variable name="x183" index="182" value="-0"/>
  <variable name="x184" index="183" value="-0"/>
  <variable name="x185" index="184" value="-0"/>
  <variable name="x186" index="185" value="-0"/>
  <variable name="x187" index="186" value="1"/>
  <variable name="x188" index="187" value="0"/>
  <variable name="x189" index="188" value="0"/>
  <variable name="x190" index="189" value="-0"/>
  <variable name="x191" index="190" value="-0"/>
  <variable name="x192" index="191" value="-0"/>
  <variable name="x193" index="192" value="-0"/>
  <variable name="x194" index="193" value="-0"/>
  <variable name="x195" index="194" value="-0"/>
  <variable name="x196" index="195" value="-0"/>
  <variable name="x197" index="196" value="-0"/>
  <variable name="x198" index="197" value="-0"/>
  <variable name="x199" index="198" value="-0"/>
  <variable name="x200" index="199" value="-0"/>
  <variable name="x201" index="200" value="-0"/>
  <variable name="x202" index="201" value="0"/>
  <variable name="x203" index="202" value="-0"/>
  <variable name="x204" index="203" value="1"/>
  <variable name="x205" index="204" value="0"/>
  <variable name="x206" index="205" value="-0"/>
  <variable name="x207" index="206" value="-0"/>
  <variable name="x208" index="207" value="-0"/>
  <variable name="x209" index="208" value="-0"/>
  <variable name="x210" index="209" value="-0"/>
  <variable name="x211" index="210" value="-0"/>
  <variable name="x212" index="211" value="-0"/>
  <variable name="x213" index="212" value="-0"/>
  <variable name="x214" index="213" value="-0"/>
  <variable name="x215" index="214" value="-0"/>
  <variable name="x216" index="215" value="-0"/>
  <variable name="x217" index="216" value="-0"/>
  <variable name="x218" index="217" value="1"/>
  <variable name="x219" index="218" value="-0"/>
  <variable name="x220" index="219" value="-0"/>
  <variable name="x221" index="220" value="-0"/>
  <variable name="x222" index="221" value="0"/>
  <variable name="x223" index="222" value="-0"/>
  <variable name="x224" index="223" value="-0"/>
  <variable name="x225" index="224" value="0"/>
  <variable name="x226" index="225" value="1"/>
  <variable name="x227" index="226" value="-0"/>
  <variable name="x228" index="227" value="-0"/>
  <variable name="x229" index="228" value="-0"/>
  <variable name="x230" index="229" value="-0"/>
  <variable name="x231" index="230" value="-0"/>
  <variable name="x232" index="231" value="-0"/>
  <variable name="x233" index="232" value="-0"/>
  <variable name="x234" index="233" value="-0"/>
  <variable name="x235" index="234" value="-0"/>
  <variable name="x236" index="235" value="-0"/>
  <variable name="x237" index="236" value="-0"/>
  <variable name="x238" index="237" value="-0"/>
  <variable name="x239" index="238" value="0"/>
  <variable name="x240" index="239" value="0"/>
  <variable name="x241" index="240" value="-0"/>
  <variable name="x242" index="241" value="0"/>
  <variable name="x243" index="242" value="0"/>
  <variable name="x244" index="243" value="-0"/>
  <variable name="x245" index="244" value="-0"/>
  <variable name="x246" index="245" value="-0"/>
  <variable name="x247" index="246" value="1"/>
  <variable name="x248" index="247" value="-0"/>
  <variable name="x249" index="248" value="-0"/>
  <variable name="x250" index="249" value="-0"/>
  <variable name="x251" index="250" value="-0"/>
  <variable name="x252" index="251" value="-0"/>
  <variable name="x253" index="252" value="-0"/>
  <variable name="x254" index="253" value="-0"/>
  <variable name="x255" index="254" value="-0"/>
  <variable name="x256" index="255" value="0"/>
  <variable name="x257" index="256" value="2"/>
  <variable name="x258" index="257" value="9"/>
  <variable name="x259" index="258" value="8"/>
  <variable name="x260" index="259" value="7"/>
  <variable name="x261" index="260" value="6"/>
  <variable name="x262" index="261" value="4"/>
  <variable name="x263" index="262" value="15"/>
  <variable name="x264" index="263" value="5"/>
  <variable name="x265" index="264" value="11"/>
  <variable name="x266" index="265" value="14"/>
  <variable name="x267" index="266" value="13"/>
  <variable name="x268" index="267" value="12"/>
  <variable name="x269" index="268" value="10"/>
  <variable name="x270" index="269" value="1"/>
  <variable name="x271" index="270" value="3"/>
 </variables>
 <objectiveValues>
  <objective index="0" name="" value="5726.2040294257285"/>
 </objectiveValues>
</CPLEXSolution>
